; databases :: corpus-study/repo_src/databases/databases/core.py :: LOCK 'Connection._query_lock' :: structured encoding (verdict: unsat)
; Generated by snf-pipeline (encoder.py) -- run with any
; SMT-LIB2-compliant solver, e.g. `z3 databases__corpus-study_repo_src_databases_databases_core.py__Connection._query_lock__structured.smt2`
; benchmark generated from python API
(set-info :status unknown)
(declare-fun lorder_0 () Int)
(declare-fun lorder_1 () Int)
(declare-fun lorder_2 () Int)
(declare-fun lorder_3 () Int)
(declare-fun lorder_4 () Int)
(declare-fun lorder_5 () Int)
(assert
 (>= lorder_0 1))
(assert
 (<= lorder_0 6))
(assert
 (>= lorder_1 1))
(assert
 (<= lorder_1 6))
(assert
 (>= lorder_2 1))
(assert
 (<= lorder_2 6))
(assert
 (>= lorder_3 1))
(assert
 (<= lorder_3 6))
(assert
 (>= lorder_4 1))
(assert
 (<= lorder_4 6))
(assert
 (>= lorder_5 1))
(assert
 (<= lorder_5 6))
(assert
 (and (distinct lorder_0 lorder_1 lorder_2 lorder_3 lorder_4 lorder_5) true))
(assert
 (let (($x31 (= lorder_0 lorder_1)))
(or $x31 (= lorder_0 lorder_2) (= lorder_0 lorder_3) (= lorder_0 lorder_4) (= lorder_0 lorder_5) (= lorder_1 lorder_2) (= lorder_1 lorder_3) (= lorder_1 lorder_4) (= lorder_1 lorder_5) (= lorder_2 lorder_3) (= lorder_2 lorder_4) (= lorder_2 lorder_5) (= lorder_3 lorder_4) (= lorder_3 lorder_5) (= lorder_4 lorder_5))))
(check-sat)
